
Gurobi 11.0.0 (win64) logging started Sat Jun 15 10:32:54 2024

Set parameter LogFile to value "./GurobiLog/stage_1_iter_34.log"
Gurobi Optimizer version 11.0.0 build v11.0.0rc2 (win64 - Windows 10.0 (18363.2))

CPU model: Intel(R) Core(TM) i7-8700 CPU @ 3.20GHz, instruction set [SSE2|AVX|AVX2]
Thread count: 6 physical cores, 12 logical processors, using up to 1 threads

Optimize a model with 1515 rows, 20484 columns and 215247 nonzeros
Coefficient statistics:
  Matrix range     [6e-04, 7e+03]
  Objective range  [1e-01, 2e+05]
  Bounds range     [7e-01, 1e+06]
  RHS range        [1e+00, 4e+04]
LP warm-start: use basis
Iteration    Objective       Primal Inf.    Dual Inf.      Time
       0    6.4150567e+04   1.974102e+03   0.000000e+00      0s
      96    6.5089422e+04   0.000000e+00   0.000000e+00      0s

Solved in 96 iterations and 0.03 seconds (0.03 work units)
Optimal objective  6.508942204e+04
